data;
set WEIGHTS := x0 x1 x2 x3 x4 x5 x6 x7 x8 x9 x10 x11 x12 x13 x14 x15 x16 x17 x18 x19 x20 x21 x22 x23 x24 x25 x26 x27;
param:  cost :=
  x0  812
  x1  813
  x2  814
  x3  815
  x4  816
  x5  817
  x6  818
  x7  819
  x8  820
  x9  821
  x10  822
  x11  823
  x12  824
  x13  825
  x14  826
  x15  827
  x16  828
  x17  829
  x18  830
  x19  831
  x20  832
  x21  833
  x22  834
  x23  835
  x24  836
  x25  837
  x26  838
  x27  839;
param cap := 11340;